Minimize
obj: 10y_1 + 74y_2 + 70y_3 + 110y_4 + 160y_5 + 66y_6 + 24y_7 + 93y_8 + 31y_9 + 11y_10 + 8y_11 + 56y_12 + 39y_13 + 50y_14 + 12y_15 + 160y_16 + 88y_17 + 48y_18 + 144y_19 + 74y_20 + 6y_21 + 160y_22 + 39y_23 + 25y_24 + 62y_25 + 56y_26 + 42y_27 + 88y_28 + 26y_29 + 2y_30 + 2y_31 + 70y_32 + 42y_33 + 44y_34 + 69y_35 + 160y_36 + 74y_37 + 160y_38 + 88y_39 + 2y_40 + 42y_41 + 18y_42 + 160y_43 + 88y_44 + 144y_45 + 146y_46 + 26y_47 + 2y_48 + 88y_49 + 44y_50 + 48y_51 + 11y_52 + 62y_53 + 62y_54 + 2y_55 + 146y_56 + 88y_57 + 26y_58 + 76y_59 + 2y_60 + 60y_61 + 102y_62 + 24y_63 + 146y_64 + 66y_65 + 26y_66 + 18y_67 + 2y_68 + 52y_69 + 18y_70 + 52y_71 + 25y_72 + 62y_73 + 160y_74 + 62y_75 + 72y_76 + 74y_77 + 72y_78 + 160y_79 + 88y_80 + 92y_81 + 88y_82 + 146y_83 + 24y_84 + 2y_85 + 8y_86 + 18y_87 + 31y_88 + 62y_89 + 6y_90 + 88y_91 + 144y_92 + 18y_93 + 18y_94 + 21y_95 + 50y_96 + 31y_97 + 45y_98 + 31y_99 + 21y_100 + 72y_101 + 74y_102 + 72y_103 + 88y_104 + 18y_105 + 144y_106 + 160y_107 + 92y_108 + 74y_109 + 2y_110 + 72y_111 + 45y_112 + 72y_113 + 26y_114 + 88y_115 + 24y_116 + 18y_117 + 82y_118 + 130y_119 + 50y_120 + 72y_121 + 76y_122 + 2y_123 + 88y_124 + 18y_125 + 24y_126 + 88y_127 + 2y_128 + 72y_129 + 2y_130 + 102y_131 + 69y_132 + 93y_133 + 18y_134 + 31y_135 + 2y_136 + 42y_137 + 60y_138 + 130y_139 + 12y_140 + 62y_141 + 42y_142 + 24y_143 + 66y_144 + 26y_145 + 31y_146 + 146y_147 + 26y_148 + 2y_149 + 88y_150 + 146y_151 + 24y_152 + 26y_153 + 82y_154 + 50y_155 + 62y_156 + 72y_157 + 72y_158 + 2y_159 + 10y_160 + 24y_161 + 66y_162 + 110y_163 + 74y_164 + 160y_165 + 74y_166 + 2y_167 + 42y_168
Subject To
x_169 = 7
x_176 = 1
x_170 = 1
x_171 = 1
x_172 = 1
x_173 = 1
x_174 = 1
x_175 = 1
x_1 - 8y_1 <= 0
x_2 - 8y_2 <= 0
x_3 - 8y_3 <= 0
x_4 - 8y_4 <= 0
x_5 - 8y_5 <= 0
x_6 - 8y_6 <= 0
x_7 - 8y_7 <= 0
x_8 - 8y_8 <= 0
x_9 - 8y_9 <= 0
x_10 - 8y_10 <= 0
x_11 - 8y_11 <= 0
x_12 - 8y_12 <= 0
x_13 - 8y_13 <= 0
x_14 - 8y_14 <= 0
x_15 - 8y_15 <= 0
x_16 - 8y_16 <= 0
x_17 - 8y_17 <= 0
x_18 - 8y_18 <= 0
x_19 - 8y_19 <= 0
x_20 - 8y_20 <= 0
x_21 - 8y_21 <= 0
x_22 - 8y_22 <= 0
x_23 - 8y_23 <= 0
x_24 - 8y_24 <= 0
x_25 - 8y_25 <= 0
x_26 - 8y_26 <= 0
x_27 - 8y_27 <= 0
x_28 - 8y_28 <= 0
x_29 - 8y_29 <= 0
x_30 - 8y_30 <= 0
x_31 - 8y_31 <= 0
x_32 - 8y_32 <= 0
x_33 - 8y_33 <= 0
x_34 - 8y_34 <= 0
x_35 - 8y_35 <= 0
x_36 - 8y_36 <= 0
x_37 - 8y_37 <= 0
x_38 - 8y_38 <= 0
x_39 - 8y_39 <= 0
x_40 - 8y_40 <= 0
x_41 - 8y_41 <= 0
x_42 - 8y_42 <= 0
x_43 - 8y_43 <= 0
x_44 - 8y_44 <= 0
x_45 - 8y_45 <= 0
x_46 - 8y_46 <= 0
x_47 - 8y_47 <= 0
x_48 - 8y_48 <= 0
x_49 - 8y_49 <= 0
x_50 - 8y_50 <= 0
x_51 - 8y_51 <= 0
x_52 - 8y_52 <= 0
x_53 - 8y_53 <= 0
x_54 - 8y_54 <= 0
x_55 - 8y_55 <= 0
x_56 - 8y_56 <= 0
x_57 - 8y_57 <= 0
x_58 - 8y_58 <= 0
x_59 - 8y_59 <= 0
x_60 - 8y_60 <= 0
x_61 - 8y_61 <= 0
x_62 - 8y_62 <= 0
x_63 - 8y_63 <= 0
x_64 - 8y_64 <= 0
x_65 - 8y_65 <= 0
x_66 - 8y_66 <= 0
x_67 - 8y_67 <= 0
x_68 - 8y_68 <= 0
x_69 - 8y_69 <= 0
x_70 - 8y_70 <= 0
x_71 - 8y_71 <= 0
x_72 - 8y_72 <= 0
x_73 - 8y_73 <= 0
x_74 - 8y_74 <= 0
x_75 - 8y_75 <= 0
x_76 - 8y_76 <= 0
x_77 - 8y_77 <= 0
x_78 - 8y_78 <= 0
x_79 - 8y_79 <= 0
x_80 - 8y_80 <= 0
x_81 - 8y_81 <= 0
x_82 - 8y_82 <= 0
x_83 - 8y_83 <= 0
x_84 - 8y_84 <= 0
x_85 - 8y_85 <= 0
x_86 - 8y_86 <= 0
x_87 - 8y_87 <= 0
x_88 - 8y_88 <= 0
x_89 - 8y_89 <= 0
x_90 - 8y_90 <= 0
x_91 - 8y_91 <= 0
x_92 - 8y_92 <= 0
x_93 - 8y_93 <= 0
x_94 - 8y_94 <= 0
x_95 - 8y_95 <= 0
x_96 - 8y_96 <= 0
x_97 - 8y_97 <= 0
x_98 - 8y_98 <= 0
x_99 - 8y_99 <= 0
x_100 - 8y_100 <= 0
x_101 - 8y_101 <= 0
x_102 - 8y_102 <= 0
x_103 - 8y_103 <= 0
x_104 - 8y_104 <= 0
x_105 - 8y_105 <= 0
x_106 - 8y_106 <= 0
x_107 - 8y_107 <= 0
x_108 - 8y_108 <= 0
x_109 - 8y_109 <= 0
x_110 - 8y_110 <= 0
x_111 - 8y_111 <= 0
x_112 - 8y_112 <= 0
x_113 - 8y_113 <= 0
x_114 - 8y_114 <= 0
x_115 - 8y_115 <= 0
x_116 - 8y_116 <= 0
x_117 - 8y_117 <= 0
x_118 - 8y_118 <= 0
x_119 - 8y_119 <= 0
x_120 - 8y_120 <= 0
x_121 - 8y_121 <= 0
x_122 - 8y_122 <= 0
x_123 - 8y_123 <= 0
x_124 - 8y_124 <= 0
x_125 - 8y_125 <= 0
x_126 - 8y_126 <= 0
x_127 - 8y_127 <= 0
x_128 - 8y_128 <= 0
x_129 - 8y_129 <= 0
x_130 - 8y_130 <= 0
x_131 - 8y_131 <= 0
x_132 - 8y_132 <= 0
x_133 - 8y_133 <= 0
x_134 - 8y_134 <= 0
x_135 - 8y_135 <= 0
x_136 - 8y_136 <= 0
x_137 - 8y_137 <= 0
x_138 - 8y_138 <= 0
x_139 - 8y_139 <= 0
x_140 - 8y_140 <= 0
x_141 - 8y_141 <= 0
x_142 - 8y_142 <= 0
x_143 - 8y_143 <= 0
x_144 - 8y_144 <= 0
x_145 - 8y_145 <= 0
x_146 - 8y_146 <= 0
x_147 - 8y_147 <= 0
x_148 - 8y_148 <= 0
x_149 - 8y_149 <= 0
x_150 - 8y_150 <= 0
x_151 - 8y_151 <= 0
x_152 - 8y_152 <= 0
x_153 - 8y_153 <= 0
x_154 - 8y_154 <= 0
x_155 - 8y_155 <= 0
x_156 - 8y_156 <= 0
x_157 - 8y_157 <= 0
x_158 - 8y_158 <= 0
x_159 - 8y_159 <= 0
x_160 - 8y_160 <= 0
x_161 - 8y_161 <= 0
x_162 - 8y_162 <= 0
x_163 - 8y_163 <= 0
x_164 - 8y_164 <= 0
x_165 - 8y_165 <= 0
x_166 - 8y_166 <= 0
x_167 - 8y_167 <= 0
x_168 - 8y_168 <= 0
x_1 - x_160 +  x_2 - x_102 +  x_3 - x_32 = 0
x_5 - x_74 +  x_4 - x_163 = 0
x_7 - x_161 +  x_6 - x_144 +  x_8 - x_133 = 0
x_9 - x_88 +  x_10 - x_52 - x_173 = 0
x_11 - x_86 - x_174 +  x_12 - x_26 = 0
x_15 - x_140 +  x_14 - x_155 +  x_13 - x_23 = 0
x_16 - x_79 +  x_18 - x_51 +  x_19 - x_92 +  x_17 - x_44 = 0
x_21 - x_90 +  x_22 - x_165 +  x_20 - x_37 = 0
x_24 - x_72 - x_175 +  x_23 - x_13 = 0
x_25 - x_89 +  x_27 - x_142 +  x_26 - x_12 = 0
x_30 - x_48 +  x_29 - x_58 +  x_28 - x_127 = 0
x_31 - x_167 +  x_33 - x_41 +  x_32 - x_3 = 0
x_36 - x_107 +  x_37 - x_20 +  x_34 - x_50 +  x_35 - x_132 = 0
x_38 - x_43 +  x_39 - x_80 = 0
x_42 - x_87 +  x_40 - x_136 +  x_41 - x_33 = 0
x_43 - x_38 +  x_45 - x_106 +  x_44 - x_17 = 0
x_47 - x_148 +  x_48 - x_30 +  x_49 - x_57 +  x_46 - x_151 = 0
x_51 - x_18 - x_170 +  x_50 - x_34 = 0
x_53 - x_141 +  x_54 - x_75 +  x_52 - x_10 = 0
x_55 - x_128 +  x_56 - x_83 +  x_57 - x_49 = 0
x_59 - x_122 +  x_58 - x_29 +  x_60 - x_149 = 0
x_62 - x_131 +  x_61 - x_138 = 0
x_63 - x_143 +  x_64 - x_147 +  x_65 - x_162 +  x_66 - x_153 = 0
x_68 - x_85 +  x_69 - x_71 +  x_67 - x_134 = 0
x_72 - x_24 +  x_70 - x_94 +  x_71 - x_69 = 0
x_73 - x_156 +  x_74 - x_5 +  x_75 - x_54 = 0
x_76 - x_157 +  x_78 - x_101 +  x_77 - x_166 = 0
x_81 - x_108 +  x_79 - x_16 +  x_80 - x_39 = 0
x_84 - x_126 +  x_83 - x_56 +  x_82 - x_150 = 0
x_86 - x_11 +  x_85 - x_68 +  x_87 - x_42 = 0
x_89 - x_25 +  x_88 - x_9 +  x_90 - x_21 = 0
x_93 - x_117 +  x_91 - x_104 +  x_92 - x_19 = 0
x_95 - x_100 +  x_96 - x_120 +  x_94 - x_70 = 0
x_98 - x_112 +  x_97 - x_146 - x_171 = 0
x_99 - x_135 - x_172 +  x_100 - x_95 = 0
x_101 - x_78 +  x_102 - x_2 +  x_103 - x_113 = 0
x_104 - x_91 +  x_106 - x_45 +  x_105 - x_125 = 0
x_108 - x_81 +  x_109 - x_164 +  x_107 - x_36 = 0
x_113 - x_103 +  x_111 - x_158 +  x_112 - x_98 +  x_110 - x_123 = 0
x_114 - x_145 +  x_116 - x_152 +  x_117 - x_93 +  x_115 - x_124 = 0
x_119 - x_139 +  x_120 - x_96 +  x_118 - x_154 = 0
x_122 - x_59 +  x_121 - x_129 +  x_123 - x_110 = 0
x_125 - x_105 +  x_124 - x_115 +  x_126 - x_84 = 0
x_127 - x_28 +  x_128 - x_55 = 0
x_130 - x_159 +  x_131 - x_62 +  x_129 - x_121 = 0
-x_176 +  x_132 - x_35 +  x_133 - x_8 = 0
x_134 - x_67 +  x_136 - x_40 +  x_137 - x_168 +  x_135 - x_99 = 0
x_138 - x_61 +  x_169 +  x_139 - x_119 = 0
x_141 - x_53 +  x_142 - x_27 +  x_140 - x_15 = 0
x_143 - x_63 +  x_145 - x_114 +  x_144 - x_6 = 0
x_148 - x_47 +  x_146 - x_97 +  x_147 - x_64 +  x_149 - x_60 = 0
x_150 - x_82 +  x_153 - x_66 +  x_151 - x_46 +  x_152 - x_116 = 0
x_154 - x_118 +  x_155 - x_14 +  x_156 - x_73 = 0
x_157 - x_76 +  x_158 - x_111 +  x_159 - x_130 = 0
x_160 - x_1 +  x_162 - x_65 +  x_161 - x_7 = 0
x_163 - x_4 +  x_164 - x_109 +  x_165 - x_22 = 0
x_166 - x_77 +  x_167 - x_31 +  x_168 - x_137 = 0
Bounds
x_1 >= 0
x_2 >= 0
x_3 >= 0
x_4 >= 0
x_5 >= 0
x_6 >= 0
x_7 >= 0
x_8 >= 0
x_9 >= 0
x_10 >= 0
x_11 >= 0
x_12 >= 0
x_13 >= 0
x_14 >= 0
x_15 >= 0
x_16 >= 0
x_17 >= 0
x_18 >= 0
x_19 >= 0
x_20 >= 0
x_21 >= 0
x_22 >= 0
x_23 >= 0
x_24 >= 0
x_25 >= 0
x_26 >= 0
x_27 >= 0
x_28 >= 0
x_29 >= 0
x_30 >= 0
x_31 >= 0
x_32 >= 0
x_33 >= 0
x_34 >= 0
x_35 >= 0
x_36 >= 0
x_37 >= 0
x_38 >= 0
x_39 >= 0
x_40 >= 0
x_41 >= 0
x_42 >= 0
x_43 >= 0
x_44 >= 0
x_45 >= 0
x_46 >= 0
x_47 >= 0
x_48 >= 0
x_49 >= 0
x_50 >= 0
x_51 >= 0
x_52 >= 0
x_53 >= 0
x_54 >= 0
x_55 >= 0
x_56 >= 0
x_57 >= 0
x_58 >= 0
x_59 >= 0
x_60 >= 0
x_61 >= 0
x_62 >= 0
x_63 >= 0
x_64 >= 0
x_65 >= 0
x_66 >= 0
x_67 >= 0
x_68 >= 0
x_69 >= 0
x_70 >= 0
x_71 >= 0
x_72 >= 0
x_73 >= 0
x_74 >= 0
x_75 >= 0
x_76 >= 0
x_77 >= 0
x_78 >= 0
x_79 >= 0
x_80 >= 0
x_81 >= 0
x_82 >= 0
x_83 >= 0
x_84 >= 0
x_85 >= 0
x_86 >= 0
x_87 >= 0
x_88 >= 0
x_89 >= 0
x_90 >= 0
x_91 >= 0
x_92 >= 0
x_93 >= 0
x_94 >= 0
x_95 >= 0
x_96 >= 0
x_97 >= 0
x_98 >= 0
x_99 >= 0
x_100 >= 0
x_101 >= 0
x_102 >= 0
x_103 >= 0
x_104 >= 0
x_105 >= 0
x_106 >= 0
x_107 >= 0
x_108 >= 0
x_109 >= 0
x_110 >= 0
x_111 >= 0
x_112 >= 0
x_113 >= 0
x_114 >= 0
x_115 >= 0
x_116 >= 0
x_117 >= 0
x_118 >= 0
x_119 >= 0
x_120 >= 0
x_121 >= 0
x_122 >= 0
x_123 >= 0
x_124 >= 0
x_125 >= 0
x_126 >= 0
x_127 >= 0
x_128 >= 0
x_129 >= 0
x_130 >= 0
x_131 >= 0
x_132 >= 0
x_133 >= 0
x_134 >= 0
x_135 >= 0
x_136 >= 0
x_137 >= 0
x_138 >= 0
x_139 >= 0
x_140 >= 0
x_141 >= 0
x_142 >= 0
x_143 >= 0
x_144 >= 0
x_145 >= 0
x_146 >= 0
x_147 >= 0
x_148 >= 0
x_149 >= 0
x_150 >= 0
x_151 >= 0
x_152 >= 0
x_153 >= 0
x_154 >= 0
x_155 >= 0
x_156 >= 0
x_157 >= 0
x_158 >= 0
x_159 >= 0
x_160 >= 0
x_161 >= 0
x_162 >= 0
x_163 >= 0
x_164 >= 0
x_165 >= 0
x_166 >= 0
x_167 >= 0
x_168 >= 0
x_169 >= 0
x_170 >= 0
x_171 >= 0
x_172 >= 0
x_173 >= 0
x_174 >= 0
x_175 >= 0
x_176 >= 0
General
Binaries
y_1
y_2
y_3
y_4
y_5
y_6
y_7
y_8
y_9
y_10
y_11
y_12
y_13
y_14
y_15
y_16
y_17
y_18
y_19
y_20
y_21
y_22
y_23
y_24
y_25
y_26
y_27
y_28
y_29
y_30
y_31
y_32
y_33
y_34
y_35
y_36
y_37
y_38
y_39
y_40
y_41
y_42
y_43
y_44
y_45
y_46
y_47
y_48
y_49
y_50
y_51
y_52
y_53
y_54
y_55
y_56
y_57
y_58
y_59
y_60
y_61
y_62
y_63
y_64
y_65
y_66
y_67
y_68
y_69
y_70
y_71
y_72
y_73
y_74
y_75
y_76
y_77
y_78
y_79
y_80
y_81
y_82
y_83
y_84
y_85
y_86
y_87
y_88
y_89
y_90
y_91
y_92
y_93
y_94
y_95
y_96
y_97
y_98
y_99
y_100
y_101
y_102
y_103
y_104
y_105
y_106
y_107
y_108
y_109
y_110
y_111
y_112
y_113
y_114
y_115
y_116
y_117
y_118
y_119
y_120
y_121
y_122
y_123
y_124
y_125
y_126
y_127
y_128
y_129
y_130
y_131
y_132
y_133
y_134
y_135
y_136
y_137
y_138
y_139
y_140
y_141
y_142
y_143
y_144
y_145
y_146
y_147
y_148
y_149
y_150
y_151
y_152
y_153
y_154
y_155
y_156
y_157
y_158
y_159
y_160
y_161
y_162
y_163
y_164
y_165
y_166
y_167
y_168
End
